Route #1: 1 2 8 3 14 9 15 16 26 25 37 34 45 59 63 53 46 38 47 54 48 39 27 21 10 4 11 17 12 5 6 7 13 22 28 40 41 29 23 35 49 55 68 72 60 56 73 93 87 86 98 97 96 92 95 83 84 85 78 67 66 65 64 71 77 82 91 81 76 90 80 75 70 62 61 51 52 44 36 33 20 32 24 19 18 31 30 42 50 57 43 58 69 74 79 94 100 89 88 99
Cost 46753
